length = 15;
width = 8;

wound =  
[| false, false, false, false, false, true,  true,  true
 | false, false, false, true,  false, false, false, true
 | false, false, false, true,  false, true,  false, false
 | true,  false, false, false, false, false, false, false
 | false, true,  true,  true,  false, false, true,  true
 | false, true,  true,  true,  false, true,  false, false
 | false, true,  true,  true,  false, true,  false, false
 | false, false, false, false, true,  false, true,  false
 | false, false, false, false, false, false, true,  false
 | false, false, false, false, true,  false, false, false
 | false, false, false, false, true,  false, false, false
 | false, false, false, false, false, false, false, false
 | false, false, false, false, true,  false, false, false
 | false, false, false, true,  true,  false, false, false
 | false, false, false, false, true,  false, false, false
|];

ntypes = 6;
number = [5,4,3,4,3,5];
dim = [| 1,1
       | 2,1
       | 3,1
       | 2,2
       | 3,3
       | 5,1 |];
price = [ 12, 5, 6, 5, 17, 12 ];
